20 53 118
1 2 5
1 3 3
1 6 1
1 17 5
2 5 3
2 12 4
2 18 5
2 19 3
3 5 1
3 9 1
3 11 2
4 6 3
4 7 1
4 10 5
4 11 1
4 12 4
4 18 2
5 11 5
5 15 1
5 18 1
5 19 2
6 7 2
6 10 3
6 16 1
6 19 1
6 20 5
7 10 4
7 14 5
7 18 2
7 19 2
7 20 3
8 14 2
8 15 5
8 19 2
9 16 1
9 18 2
10 19 1
11 15 4
11 16 4
11 19 5
12 13 5
12 18 4
13 17 1
14 15 3
14 17 5
14 18 2
15 16 4
15 18 1
15 19 3
16 17 5
16 19 5
17 20 2
18 19 1
